c SAT problem
p wcnf 383 1478
1 60 3165 0
1 -60 -61 0
1 -90 -3075 0
1 105 3075 0
1 105 -3150 0
1 -105 3090 0
1 -105 3060 0
1 -105 -90 0
1 -105 -3135 0
1 -3120 105 0
1 -3120 -181 0
1 -3120 150 0
1 3120 120 0
1 3135 3136 0
1 3135 196 0
1 -3135 135 0
1 3135 105 0
1 3135 75 0
1 -3150 -121 0
1 -3150 -60 0
1 -3150 -3165 0
1 3165 75 0
1 3165 -181 0
1 3165 -90 0
1 -120 3075 0
1 -135 -3105 0
1 -135 3135 0
1 -150 -165 0
1 150 3045 0
1 150 -3120 0
1 150 3030 0
1 -150 151 0
1 150 -3135 0
1 -165 3045 0
1 165 -3090 0
1 165 -3060 0
1 165 -3000 0
1 3060 135 0
1 -3060 -240 0
1 3060 -180 0
1 -3075 3076 0
1 3075 -165 0
1 -3075 -210 0
1 -3075 150 0
1 -3090 -3105 0
1 3090 -226 0
1 3090 240 0
1 3090 -255 0
1 3105 -120 0
1 180 195 0
1 -180 3045 0
1 180 -3015 0
1 180 3060 0
1 -195 196 0
1 195 3015 0
1 -210 225 0
1 -210 -3075 0
1 210 -3045 0
1 -225 226 0
1 -225 3060 0
1 -3000 225 0
1 -3000 300 0
1 3015 225 0
1 -3015 -195 0
1 3015 165 0
1 3015 -3016 0
1 3015 -300 0
1 -3015 -3000 0
1 -3015 -315 0
1 3030 240 0
1 -3045 -225 0
1 -3045 150 0
1 -61 3330 0
1 61 3300 0
1 -61 3345 0
1 61 3315 0
1 -61 62 0
1 -91 3330 0
1 -91 90 0
1 -106 -107 0
1 106 -3345 0
1 106 -3285 0
1 -106 3255 0
1 3300 -197 0
1 -3300 3301 0
1 -3300 136 0
1 -3300 -106 0
1 3300 -121 0
1 -3315 -197 0
1 -3315 -166 0
1 -3315 182 0
1 3315 91 0
1 3330 -3331 0
1 -3330 -197 0
1 -3330 167 0
1 -3330 76 0
1 3330 -3345 0
1 3330 -182 0
1 3330 152 0
1 3330 -122 0
1 3330 91 0
1 -3345 3330 0
1 3345 76 0
1 -3345 -3346 0
1 3345 -182 0
1 -3345 -152 0
1 -3345 -122 0
1 -3345 -91 0
1 -121 -3300 0
1 -136 135 0
1 -136 -121 0
1 -151 3240 0
1 151 -3180 0
1 151 -3255 0
1 -166 -3180 0
1 166 -151 0
1 -166 3225 0
1 -3240 -226 0
1 -3240 196 0
1 -3240 -136 0
1 -3240 -241 0
1 3240 151 0
1 -3240 -91 0
1 -3255 241 0
1 3255 -3256 0
1 -3270 -256 0
1 -3270 -241 0
1 3270 -121 0
1 3285 -3270 0
1 -3285 136 0
1 3285 -241 0
1 181 3105 0
1 181 3180 0
1 181 3255 0
1 181 -3225 0
1 -181 -3135 0
1 -196 -3105 0
1 -196 -3240 0
1 196 -3210 0
1 -196 -3180 0
1 -196 181 0
1 -211 -3240 0
1 -211 210 0
1 -211 -3255 0
1 226 225 0
1 -226 -3105 0
1 -226 3166 0
1 -3180 -226 0
1 3180 301 0
1 -3180 -270 0
1 3180 211 0
1 -3180 151 0
1 -3180 316 0
1 3195 -196 0
1 -3195 -270 0
1 -3195 -240 0
1 -3195 -211 0
1 3210 -226 0
1 -3210 3211 0
1 3210 -301 0
1 -3210 211 0
1 3210 181 0
1 -3225 -256 0
1 3225 -166 0
1 -3225 -3210 0
1 3225 -241 0
1 3225 -211 0
1 240 3045 0
1 -240 3060 0
1 240 -3166 0
1 -255 240 0
1 255 -3121 0
1 255 -3030 0
1 270 3045 0
1 270 -3180 0
1 270 -271 0
1 -270 285 0
1 285 3151 0
1 -285 3061 0
1 285 -3030 0
1 3121 3136 0
1 -3121 330 0
1 -3121 300 0
1 -3121 -3120 0
1 3121 -3122 0
1 -3121 -211 0
1 3121 -285 0
1 3136 -361 0
1 3136 330 0
1 3136 -300 0
1 -3136 270 0
1 -3136 211 0
1 3151 -331 0
1 -3151 240 0
1 -3151 376 0
1 -3151 346 0
1 -3151 3166 0
1 -3151 255 0
1 3166 3151 0
1 -3166 -211 0
1 -3166 376 0
1 -3166 -346 0
1 -3166 -316 0
1 -3166 -3167 0
1 3166 -255 0
1 -300 -3015 0
1 -300 3030 0
1 315 -3106 0
1 -315 -3015 0
1 -315 3091 0
1 -315 -316 0
1 -330 3076 0
1 -330 3016 0
1 -330 331 0
1 -330 3121 0
1 -330 3061 0
1 345 3016 0
1 345 330 0
1 -345 -3121 0
1 345 -3091 0
1 345 -3061 0
1 -3061 420 0
1 3061 -3076 0
1 3061 270 0
1 -3061 405 0
1 3061 -3062 0
1 -3061 -375 0
1 -3061 -345 0
1 3076 3077 0
1 -3076 -390 0
1 -3076 330 0
1 3076 3061 0
1 -3076 -375 0
1 3091 420 0
1 -3091 -406 0
1 -3091 285 0
1 -3106 361 0
1 -3106 315 0
1 360 3016 0
1 375 3016 0
1 -375 -3061 0
1 390 -3001 0
1 -3001 -3016 0
1 -3001 375 0
1 -3016 480 0
1 -3016 -3015 0
1 3016 3017 0
1 -3016 495 0
1 3016 375 0
1 -3031 -420 0
1 -3031 -360 0
1 -3031 330 0
1 3031 -495 0
1 -3031 405 0
1 -3031 -3032 0
1 3031 345 0
1 3046 -420 0
1 -3046 -3047 0
1 3046 495 0
1 -3046 -3031 0
1 -3046 375 0
1 62 3525 0
1 -77 3510 0
1 -92 3510 0
1 92 3480 0
1 92 3450 0
1 107 3495 0
1 -107 3465 0
1 -3480 -107 0
1 3495 -3496 0
1 -3495 137 0
1 3495 -183 0
1 3495 92 0
1 3510 138 0
1 3510 -77 0
1 -3510 -153 0
1 -3525 -138 0
1 3525 183 0
1 -122 -3465 0
1 122 3435 0
1 -122 3345 0
1 122 -123 0
1 -122 3420 0
1 137 3330 0
1 137 -122 0
1 137 -3420 0
1 152 -3330 0
1 -152 -3435 0
1 -152 -3480 0
1 167 -3360 0
1 -167 -3330 0
1 167 -166 0
1 167 -3495 0
1 -167 3345 0
1 -167 -152 0
1 -3420 257 0
1 3420 -227 0
1 -3420 -197 0
1 3420 137 0
1 -3420 107 0
1 -3420 -212 0
1 3420 -152 0
1 -3420 -92 0
1 3435 257 0
1 3435 -227 0
1 -3435 152 0
1 3450 3465 0
1 -3450 107 0
1 -3450 242 0
1 3450 -3451 0
1 -3465 107 0
1 -3465 -242 0
1 -3465 -152 0
1 -3465 122 0
1 3465 -92 0
1 -182 -3300 0
1 182 -197 0
1 182 3270 0
1 -182 -3315 0
1 -182 3285 0
1 182 -181 0
1 -182 3420 0
1 -182 3390 0
1 197 3270 0
1 197 -198 0
1 197 3435 0
1 197 3405 0
1 -197 3285 0
1 197 3420 0
1 -212 3435 0
1 227 3270 0
1 227 212 0
1 227 3285 0
1 3360 256 0
1 -3360 -227 0
1 -3360 -241 0
1 -3360 -152 0
1 -3375 256 0
1 3375 -302 0
1 3375 271 0
1 3375 -241 0
1 3390 -257 0
1 -3390 197 0
1 3390 302 0
1 -3390 242 0
1 3390 -182 0
1 3390 152 0
1 3405 257 0
1 3405 227 0
1 3405 197 0
1 -3405 167 0
1 -3405 3406 0
1 3405 -152 0
1 241 3360 0
1 241 3270 0
1 241 3240 0
1 241 3255 0
1 256 -3331 0
1 256 -3301 0
1 256 3270 0
1 256 -3210 0
1 256 3316 0
1 -256 3225 0
1 271 -3360 0
1 -271 3331 0
1 -271 3241 0
1 271 3375 0
1 271 3316 0
1 271 3286 0
1 -271 3256 0
1 286 3301 0
1 -286 3271 0
1 286 3346 0
1 3301 3300 0
1 -3301 377 0
1 -3316 362 0
1 3316 301 0
1 3316 241 0
1 -3331 -256 0
1 -3331 362 0
1 3331 -212 0
1 3331 377 0
1 3346 -227 0
1 3346 -377 0
1 301 -3301 0
1 301 -3195 0
1 301 316 0
1 316 3301 0
1 316 301 0
1 316 3316 0
1 331 -3211 0
1 331 -3181 0
1 -331 -3151 0
1 -331 3286 0
1 -331 -3196 0
1 -346 -3211 0
1 -346 -3286 0
1 346 -3196 0
1 -3241 406 0
1 -3241 316 0
1 -3256 -391 0
1 -3256 -361 0
1 3256 331 0
1 -3256 -406 0
1 -3271 -3270 0
1 -3271 -271 0
1 -3271 -3286 0
1 -3286 392 0
1 -3286 331 0
1 -3286 -407 0
1 -3286 -346 0
1 3286 -286 0
1 -361 -3136 0
1 -361 3256 0
1 -361 -360 0
1 -361 -3241 0
1 -361 3181 0
1 -361 3091 0
1 376 3136 0
1 376 -3106 0
1 376 3151 0
1 376 3121 0
1 376 -375 0
1 -376 377 0
1 -376 -3226 0
1 -406 -3106 0
1 -406 3152 0
1 406 3122 0
1 406 -405 0
1 -406 -407 0
1 406 -3167 0
1 -3181 450 0
1 -3181 391 0
1 -3181 -3182 0
1 3181 -496 0
1 -3181 435 0
1 -3181 -406 0
1 3196 420 0
1 3196 -391 0
1 -3196 331 0
1 -3196 -465 0
1 -3196 -346 0
1 -3211 -3226 0
1 3211 -331 0
1 3226 466 0
1 -3226 -376 0
1 -3226 3225 0
1 -3226 -3227 0
1 -420 -3076 0
1 -420 -3091 0
1 420 3196 0
1 435 3137 0
1 435 420 0
1 -435 3122 0
1 -435 -3091 0
1 -450 3077 0
1 -450 -3152 0
1 450 -465 0
1 450 -3062 0
1 -450 -3167 0
1 -465 3077 0
1 465 3046 0
1 -3122 420 0
1 -3122 -391 0
1 -3122 -495 0
1 -3122 465 0
1 -3122 -3123 0
1 -3122 510 0
1 -3137 -450 0
1 3137 -391 0
1 3137 -435 0
1 3137 510 0
1 -3152 420 0
1 3152 526 0
1 -3152 3151 0
1 3152 406 0
1 3167 450 0
1 -3167 420 0
1 -3167 391 0
1 -3167 -496 0
1 -3167 406 0
1 3167 541 0
1 480 -3077 0
1 480 -3062 0
1 -480 3031 0
1 480 -3001 0
1 495 480 0
1 -495 3077 0
1 -495 3046 0
1 -495 -3122 0
1 -495 -3092 0
1 495 -3001 0
1 510 3002 0
1 -510 511 0
1 -525 3137 0
1 525 3107 0
1 525 3017 0
1 -525 -526 0
1 525 -3122 0
1 525 3092 0
1 -525 -3032 0
1 3062 -585 0
1 3062 -555 0
1 3062 -495 0
1 3062 -3063 0
1 -3062 -600 0
1 3077 -450 0
1 -3077 -615 0
1 -3077 -555 0
1 -3077 -465 0
1 3077 -570 0
1 3077 -510 0
1 3092 -525 0
1 3092 3093 0
1 -3092 541 0
1 3092 -510 0
1 3107 -3106 0
1 -3107 -3108 0
1 3107 -556 0
1 -3107 525 0
1 3107 495 0
1 3107 -465 0
1 -3107 -3092 0
1 3107 -600 0
1 540 3062 0
1 -555 556 0
1 555 3062 0
1 -555 -3032 0
1 -570 -3047 0
1 -570 3062 0
1 -570 -3032 0
1 585 -3002 0
1 -585 -3047 0
1 585 -3017 0
1 585 3062 0
1 585 -570 0
1 3002 -675 0
1 3002 -585 0
1 -3002 -3017 0
1 3002 -555 0
1 -3002 -660 0
1 -3002 3003 0
1 3032 -645 0
1 3032 585 0
1 -3032 -3031 0
1 -3032 -600 0
1 3032 -510 0
1 3047 675 0
1 3047 -555 0
1 3047 525 0
1 3047 -600 0
1 -3047 570 0
1 -3047 -540 0
1 -63 3660 0
1 63 78 0
1 63 3705 0
1 63 62 0
1 93 -3690 0
1 -93 3600 0
1 108 3645 0
1 -108 -3660 0
1 108 3600 0
1 -108 -3705 0
1 -3660 -3661 0
1 3660 3675 0
1 3660 -63 0
1 -3675 -168 0
1 -3675 3660 0
1 -3675 78 0
1 -3675 93 0
1 -3690 -3705 0
1 3690 93 0
1 3705 -93 0
1 -123 3525 0
1 -123 -138 0
1 123 3630 0
1 123 -3510 0
1 -123 -3615 0
1 -138 3675 0
1 -138 -123 0
1 153 3525 0
1 -153 -152 0
1 153 -3675 0
1 168 3585 0
1 -168 3600 0
1 -3600 258 0
1 3600 -168 0
1 -3600 -243 0
1 3600 -213 0
1 3600 -153 0
1 3615 -258 0
1 3615 -228 0
1 -3615 -198 0
1 3615 138 0
1 3615 -183 0
1 -3615 93 0
1 3630 -3645 0
1 3630 -93 0
1 -3645 258 0
1 -183 -3555 0
1 -183 -3480 0
1 183 3600 0
1 -183 3570 0
1 -198 -3495 0
1 -198 -3480 0
1 -213 3496 0
1 -213 3570 0
1 213 -3615 0
1 -228 -3526 0
1 -228 -3465 0
1 228 3481 0
1 -228 -3450 0
1 -3540 -228 0
1 3540 303 0
1 -3540 -242 0
1 3540 183 0
1 3555 3556 0
1 3570 -228 0
1 3570 273 0
1 3570 -3571 0
1 -3570 213 0
1 3570 -318 0
1 -3585 288 0
1 3585 228 0
1 3585 198 0
1 3585 243 0
1 3585 213 0
1 -3585 -183 0
1 3585 318 0
1 242 -3465 0
1 242 -3405 0
1 242 -3481 0
1 242 3450 0
1 242 -3420 0
1 257 -258 0
1 257 3390 0
1 272 3555 0
1 -272 -3436 0
1 272 -3481 0
1 -287 288 0
1 287 3436 0
1 -287 272 0
1 -287 3451 0
1 287 -3421 0
1 -287 3390 0
1 3481 -3482 0
1 -3481 -347 0
1 3481 -287 0
1 -3496 332 0
1 -3496 302 0
1 -3496 272 0
1 -3496 -213 0
1 3496 347 0
1 -3511 -303 0
1 3511 242 0
1 -3511 -318 0
1 3511 287 0
1 3526 -228 0
1 3526 -3527 0
1 3526 363 0
1 3526 -242 0
1 3526 -378 0
1 -3526 318 0
1 3526 -287 0
1 302 -3360 0
1 -302 -3331 0
1 302 3481 0
1 302 3451 0
1 302 -317 0
1 -302 -3390 0
1 317 3466 0
1 -317 -3436 0
1 317 -302 0
1 -317 3451 0
1 -332 331 0
1 -332 -3436 0
1 -332 333 0
1 -332 3451 0
1 -347 -3361 0
1 -347 -3466 0
1 347 332 0
1 347 -3391 0
1 -3421 -392 0
1 3421 -362 0
1 -3421 -3436 0
1 -3421 -3422 0
1 3421 287 0
1 -3436 -362 0
1 -3451 393 0
1 -3451 302 0
1 -3451 347 0
1 -3451 -287 0
1 -3466 -302 0
1 3466 -378 0
1 -3466 -317 0
1 3466 287 0
1 -362 3361 0
1 362 -3271 0
1 -362 -363 0
1 -362 -3391 0
1 377 3331 0
1 -377 3436 0
1 377 3406 0
1 -377 3346 0
1 -377 -3286 0
1 -377 376 0
1 377 -378 0
1 -392 3271 0
1 -392 393 0
1 392 3406 0
1 392 3286 0
1 -392 -3421 0
1 407 -3347 0
1 -407 -406 0
1 3361 -3362 0
1 -3361 497 0
1 -3376 -3361 0
1 -3376 362 0
1 3376 -332 0
1 3376 -436 0
1 3376 407 0
1 -3376 -347 0
1 3391 -3392 0
1 3391 497 0
1 3391 437 0
1 -3391 407 0
1 3406 452 0
1 -3406 467 0
1 3406 3391 0
1 -421 -422 0
1 -421 3302 0
1 421 -3211 0
1 421 3347 0
1 -421 -3317 0
1 421 3256 0
1 -436 -421 0
1 436 -3302 0
1 436 3271 0
1 -436 -3376 0
1 -436 435 0
1 436 -3347 0
1 436 -3226 0
1 451 -3302 0
1 451 3242 0
1 -451 -3376 0
1 451 3257 0
1 466 451 0
1 466 3332 0
1 -466 -3376 0
1 -466 467 0
1 -466 -3317 0
1 3302 421 0
1 3302 3301 0
1 3302 -392 0
1 3302 557 0
1 -3302 -526 0
1 3302 496 0
1 3302 466 0
1 -3302 436 0
1 -3302 -3317 0
1 -3302 407 0
1 3317 392 0
1 -3317 436 0
1 3317 3318 0
1 -3332 482 0
1 -3332 -527 0
1 -3332 466 0
1 3347 512 0
1 3347 -451 0
1 -3347 -527 0
1 3347 497 0
1 -3347 3348 0
1 481 3272 0
1 -481 -496 0
1 -481 -3152 0
1 -481 -3287 0
1 481 -3257 0
1 496 481 0
1 496 3272 0
1 -496 3242 0
1 -496 -3257 0
1 -511 3302 0
1 -511 -3272 0
1 511 -3182 0
1 511 3197 0
1 511 3167 0
1 -526 3302 0
1 -526 -3242 0
1 -526 3182 0
1 -526 3287 0
1 3242 -616 0
1 3242 -3243 0
1 3242 -496 0
1 3242 -571 0
1 -3242 541 0
1 -3242 511 0
1 3257 -451 0
1 3257 586 0
1 -3257 -3256 0
1 -3257 -511 0
1 -3272 -616 0
1 -3272 -557 0
1 -3272 496 0
1 -3272 466 0
1 -3272 3287 0
1 -3272 601 0
1 -3287 3286 0
1 -3287 -3288 0
1 3287 -572 0
1 -3287 511 0
1 -541 3182 0
1 541 3167 0
1 556 3107 0
1 556 3152 0
1 -556 3197 0
1 -556 3227 0
1 556 3167 0
1 -571 -3138 0
1 -571 586 0
1 -571 -3182 0
1 571 3123 0
1 -571 -3092 0
1 571 3257 0
1 -571 -3227 0
1 586 3168 0
1 -586 -3242 0
1 -586 -587 0
1 586 3182 0
1 586 3123 0
1 -586 3092 0
1 3182 556 0
1 -3182 526 0
1 3182 3183 0
1 3182 -661 0
1 3182 511 0
1 3197 571 0
1 3197 3198 0
1 -3212 -3211 0
1 3212 -3213 0
1 -3212 511 0
1 3227 646 0
1 3227 -661 0
1 -3227 541 0
1 -3227 511 0
1 -600 -3153 0
1 615 -3047 0
1 615 3123 0
1 -615 3092 0
1 -630 3168 0
1 -630 -3032 0
1 -645 -3138 0
1 -645 3153 0
1 645 -3063 0
1 645 3032 0
1 -3123 -736 0
1 3123 3138 0
1 -3123 -630 0
1 -3138 -3137 0
1 3138 -675 0
1 -3138 690 0
1 -3138 600 0
1 -3153 706 0
1 3153 691 0
1 3153 -571 0
1 3168 -3153 0
1 3168 600 0
1 660 3138 0
1 -660 3047 0
1 660 661 0
1 -660 3093 0
1 660 -3063 0
1 675 3138 0
1 -675 -3093 0
1 -675 3002 0
1 -690 -3138 0
1 690 -3108 0
1 690 3018 0
1 -690 -691 0
1 -690 3123 0
1 -690 3093 0
1 690 3003 0
1 705 -690 0
1 705 -3093 0
1 -705 -3063 0
1 3063 -720 0
1 3078 750 0
1 -3078 3063 0
1 3078 765 0
1 -3078 -735 0
1 -3093 -645 0
1 3093 -751 0
1 -3108 675 0
1 -720 3048 0
1 720 -3063 0
1 -735 3048 0
1 750 3018 0
1 -750 -3063 0
1 -750 -3033 0
1 765 3078 0
1 3003 -3018 0
1 -3003 690 0
1 -3003 765 0
1 -3003 -735 0
1 3018 3017 0
1 -3018 -750 0
1 3033 -3048 0
1 -3033 -720 0
1 -3033 -690 0
1 3033 3032 0
1 -3033 765 0
1 3033 -735 0
1 -3048 690 0
1 -243 -3585 0
1 -243 258 0
1 -243 -3661 0
1 243 3630 0
1 -243 3570 0
1 243 3706 0
1 258 257 0
1 -258 -3630 0
1 258 3600 0
1 258 3645 0
1 -258 3615 0
1 -273 288 0
1 -273 -3691 0
1 -288 -3570 0
1 -288 -3601 0
1 -3661 -258 0
1 3661 3662 0
1 3661 -243 0
1 -3676 243 0
1 -3676 348 0
1 3691 -243 0
1 -3706 288 0
1 3706 3707 0
1 -3706 -243 0
1 -303 3616 0
1 303 -3555 0
1 -303 3646 0
1 -303 -3540 0
1 303 -3511 0
1 -318 3555 0
1 -318 303 0
1 318 -3570 0
1 -318 -3511 0
1 318 3676 0
1 -333 -3616 0
1 333 3556 0
1 -333 3661 0
1 -333 -3601 0
1 -333 -3571 0
1 -333 3541 0
1 -333 3511 0
1 -333 3676 0
1 348 -3616 0
1 348 333 0
1 -348 3661 0
1 348 3511 0
1 -3601 -363 0
1 3601 333 0
1 -3601 3600 0
1 3601 273 0
1 -3601 -3602 0
1 -3601 -438 0
1 3601 318 0
1 3616 -423 0
1 -3616 273 0
1 -3616 3601 0
1 3616 438 0
1 -3616 348 0
1 -3616 3615 0
1 -3631 -3646 0
1 3631 -333 0
1 3631 3630 0
1 -3631 -303 0
1 -3646 -423 0
1 3646 3645 0
1 363 -362 0
1 363 3571 0
1 363 3511 0
1 378 -3616 0
1 378 -3556 0
1 -378 3466 0
1 378 -3601 0
1 378 -3571 0
1 -393 3497 0
1 -393 -3571 0
1 -393 -3541 0
1 -393 3482 0
1 408 3527 0
1 -408 -393 0
1 408 3601 0
1 -408 -3512 0
1 -3541 393 0
1 -3541 378 0
1 3556 -452 0
1 3556 -422 0
1 3556 -333 0
1 -3556 498 0
1 3556 437 0
1 3556 408 0
1 3571 -453 0
1 3571 -333 0
1 -3571 -3570 0
1 -3571 -408 0
1 3586 -483 0
1 3586 -3587 0
1 3586 -453 0
1 -3586 -393 0
1 3586 3571 0
1 3586 468 0
1 3586 -408 0
1 -422 3497 0
1 422 -3466 0
1 -422 3451 0
1 -422 3421 0
1 422 -3391 0
1 -437 3556 0
1 -437 -3436 0
1 437 -438 0
1 437 -3391 0
1 -452 -3527 0
1 452 3467 0
1 452 3437 0
1 -452 3406 0
1 -452 -3541 0
1 452 3512 0
1 -452 3482 0
1 452 3422 0
1 467 3556 0
1 -467 -3482 0
1 3482 482 0
1 3482 422 0
1 3482 -393 0
1 -3482 -558 0
1 3482 -3483 0
1 3497 -422 0
1 -3497 497 0
1 -3497 -467 0
1 -3497 408 0
1 3512 483 0
1 -3512 -393 0
1 -3512 558 0
1 3512 498 0
1 3512 3511 0
1 -3527 -513 0
1 -3527 -452 0
1 -3527 -558 0
1 -3527 -408 0
1 -3527 543 0
1 482 481 0
1 482 3347 0
1 -482 3422 0
1 482 -3391 0
1 497 3437 0
1 -497 3406 0
1 -497 -3376 0
1 497 -498 0
1 -497 -3452 0
1 497 3391 0
1 512 -513 0
1 -512 -3362 0
1 512 -3497 0
1 -512 -3467 0
1 512 3437 0
1 527 -512 0
1 527 526 0
1 527 -3407 0
1 527 528 0
1 -3422 452 0
1 -3422 587 0
1 -3422 -557 0
1 -3422 467 0
1 -3422 3421 0
1 3437 452 0
1 -3437 -587 0
1 3437 557 0
1 -3437 -3438 0
1 -3437 527 0
1 3437 467 0
1 3437 572 0
1 3437 -3422 0
1 3452 588 0
1 -3452 -527 0
1 3452 497 0
1 3452 -3453 0
1 -3452 -602 0
1 -3452 573 0
1 3452 543 0
1 3467 482 0
1 3467 -527 0
1 3467 -497 0
1 557 3332 0
1 557 3302 0
1 -557 -3347 0
1 -572 -3333 0
1 572 3407 0
1 572 3348 0
1 572 571 0
1 587 3287 0
1 -587 3422 0
1 3362 -3363 0
1 3362 -677 0
1 -3362 -646 0
1 -3362 587 0
1 3362 -527 0
1 3362 -662 0
1 -3362 -631 0
1 -3362 -601 0
1 -3377 616 0
1 -3377 -557 0
1 3377 601 0
1 -3392 677 0
1 3392 647 0
1 -3392 587 0
1 3392 557 0
1 3392 -3407 0
1 -3407 617 0
1 3407 587 0
1 -3407 572 0
1 -601 -3377 0
1 -601 3318 0
1 -616 3333 0
1 616 3303 0
1 -616 -3212 0
1 616 3377 0
1 616 3318 0
1 616 601 0
1 -631 3243 0
1 -631 3227 0
1 -646 -3362 0
1 -646 3273 0
1 646 3212 0
1 -3303 -737 0
1 3303 691 0
1 3303 -661 0
1 3303 3318 0
1 3303 631 0
1 3318 -616 0
1 -3318 -601 0
1 -3333 -737 0
1 -3333 616 0
1 3333 -3348 0
1 3348 646 0
1 3348 -3333 0
1 3348 -3347 0
1 3348 -692 0
1 -3348 662 0
1 3348 631 0
1 -661 676 0
1 -661 -660 0
1 661 662 0
1 661 3258 0
1 661 -3227 0
1 -661 3197 0
1 676 -3168 0
1 -676 -675 0
1 676 -3212 0
1 676 -3227 0
1 -691 -706 0
1 -691 3273 0
1 691 690 0
1 -691 -692 0
1 -691 -3258 0
1 -706 705 0
1 3243 646 0
1 3243 -3242 0
1 3243 721 0
1 3243 -691 0
1 3243 661 0
1 3258 -736 0
1 3258 646 0
1 -3258 721 0
1 3258 -691 0
1 3258 -661 0
1 -3273 737 0
1 3273 -646 0
1 -3273 -3272 0
1 -3273 752 0
1 3273 722 0
1 -3273 -691 0
1 -3273 -661 0
1 -3273 631 0
1 -3288 -706 0
1 -3288 722 0
1 721 -3108 0
1 -721 -3243 0
1 721 -3183 0
1 -721 3228 0
1 736 -3168 0
1 -736 3138 0
1 -736 -3093 0
1 -736 735 0
1 751 3213 0
1 -751 3183 0
1 766 -3108 0
1 -766 -3243 0
1 -766 3183 0
1 3183 -736 0
1 -3183 3198 0
1 -3198 -721 0
1 3198 -3197 0
1 3213 -721 0
1 3213 -3228 0
1 -3213 -766 0
1 -3228 -766 0
1 423 3662 0
1 -423 -3707 0
1 423 -3646 0
1 -438 -3586 0
1 -438 3631 0
1 438 3601 0
1 -453 3586 0
1 -453 3632 0
1 -453 -3677 0
1 468 -453 0
1 468 -3692 0
1 -468 -3632 0
1 468 -3571 0
1 3662 -513 0
1 3662 -423 0
1 -3662 -3663 0
1 3662 468 0
1 3677 483 0
1 3677 -453 0
1 3677 -423 0
1 3677 528 0
1 3677 438 0
1 3677 -3676 0
1 -3692 3693 0
1 -3692 438 0
1 483 482 0
1 483 -3556 0
1 483 3527 0
1 -483 -3632 0
1 483 -3602 0
1 483 3677 0
1 498 -3617 0
1 -498 3527 0
1 498 3632 0
1 498 -3602 0
1 -498 3541 0
1 498 3512 0
1 -498 3677 0
1 -498 -3647 0
1 -513 -3587 0
1 -513 -3632 0
1 513 -3542 0
1 -528 513 0
1 -528 -3662 0
1 528 3632 0
1 -528 -3677 0
1 3602 -483 0
1 -3602 528 0
1 -3617 603 0
1 3632 468 0
1 -3632 -603 0
1 -3632 3647 0
1 -3647 -483 0
1 -3647 -498 0
1 3647 468 0
1 -543 3617 0
1 543 -3557 0
1 543 -3527 0
1 -543 -558 0
1 543 -3512 0
1 -558 -3557 0
1 558 3572 0
1 -558 -3482 0
1 -558 543 0
1 573 -3587 0
1 -573 3528 0
1 573 -3498 0
1 573 -3483 0
1 588 -3617 0
1 588 -3587 0
1 -588 3498 0
1 -588 3467 0
1 -588 -587 0
1 588 -3602 0
1 588 -3483 0
1 -3542 513 0
1 3542 -647 0
1 -3542 -663 0
1 -3542 -632 0
1 -3557 617 0
1 -3557 -573 0
1 -3572 -678 0
1 -3572 -3571 0
1 3572 663 0
1 3572 603 0
1 3572 -573 0
1 3587 -3588 0
1 -3587 -618 0
1 -3587 -3572 0
1 602 -617 0
1 602 3407 0
1 -602 -3483 0
1 602 3542 0
1 602 601 0
1 602 -3452 0
1 617 -3528 0
1 617 -618 0
1 617 3467 0
1 -617 -3437 0
1 -617 -3513 0
1 632 -3557 0
1 632 3438 0
1 632 -631 0
1 647 3392 0
1 -647 3438 0
1 -647 632 0
1 -3483 677 0
1 -3483 -617 0
1 -3483 -3482 0
1 -3483 632 0
1 -3498 -647 0
1 -3498 -602 0
1 3498 3483 0
1 -3513 -708 0
1 -3513 617 0
1 -3513 -3528 0
1 -3513 -723 0
1 -3513 663 0
1 -3513 632 0
1 3528 -738 0
1 3528 588 0
1 3528 -723 0
1 3528 602 0
1 -662 677 0
1 662 3498 0
1 -662 3468 0
1 -662 3438 0
1 662 -3348 0
1 -677 3392 0
1 677 -676 0
1 -677 -3333 0
1 -677 678 0
1 -677 3438 0
1 -677 -3348 0
1 677 662 0
1 -677 3453 0
1 677 3423 0
1 692 3393 0
1 -692 -3363 0
1 -692 3498 0
1 -692 -3468 0
1 692 -3408 0
1 707 3393 0
1 707 -706 0
1 -707 3468 0
1 707 3348 0
1 707 -692 0
1 3423 722 0
1 3423 -692 0
1 3438 737 0
1 3438 3437 0
1 -3438 632 0
1 -3453 -768 0
1 -3453 738 0
1 3453 -3468 0
1 -3453 -662 0
1 -3453 -632 0
1 -3468 738 0
1 3468 707 0
1 -3468 677 0
1 3468 3467 0
1 -3468 -692 0
1 -3468 632 0
1 722 3393 0
1 722 -3333 0
1 722 -3408 0
1 -722 -721 0
1 -722 -3378 0
1 -722 3348 0
1 -722 -3318 0
1 -737 736 0
1 737 3393 0
1 -737 -3303 0
1 737 -3273 0
1 737 3348 0
1 737 3423 0
1 -752 -3393 0
1 -752 -767 0
1 -767 3363 0
1 -767 -3273 0
1 -767 752 0
1 -3363 -707 0
1 -3363 752 0
1 3378 -3363 0
1 -3378 722 0
1 3378 692 0
1 3393 3392 0
1 3393 -3408 0
1 3393 722 0
1 3393 692 0
1 3393 767 0
1 -3408 -737 0
1 3408 707 0
1 3408 -752 0
1 -3408 692 0
1 -603 3587 0
1 -603 -3663 0
1 603 602 0
1 603 -3647 0
1 618 -3617 0
1 -618 -617 0
1 -618 3693 0
1 -618 3632 0
1 -618 3678 0
1 618 3647 0
1 633 -632 0
1 -648 3618 0
1 -648 -3663 0
1 3663 -708 0
1 -3663 -3678 0
1 3663 -618 0
1 3663 -3662 0
1 -3663 633 0
1 3678 -708 0
1 -3678 -648 0
1 -3678 633 0
1 3693 -648 0
1 3693 -618 0
1 3693 -603 0
1 -3708 3707 0
1 3708 3693 0
1 663 -3587 0
1 -678 3618 0
1 678 3528 0
1 678 3542 0
1 678 -663 0
1 693 3663 0
1 -693 -3543 0
1 -708 3648 0
1 708 3588 0
1 708 -3528 0
1 -708 3633 0
1 708 3543 0
1 708 -3678 0
1 3603 678 0
1 -3603 -753 0
1 3603 -3602 0
1 3603 723 0
1 3603 663 0
1 -3618 -753 0
1 3618 -633 0
1 -3633 678 0
1 3648 663 0
1 723 738 0
1 723 -3603 0
1 723 3573 0
1 -723 3543 0
1 738 -737 0
1 738 -3588 0
1 738 -3498 0
1 -738 3573 0
1 -738 -3543 0
1 -738 3513 0
1 753 -3618 0
1 -753 3588 0
1 768 -3588 0
1 -768 -3558 0
1 -768 -3468 0
1 -768 3603 0
1 -3543 -3558 0
1 3543 -693 0
1 -3543 -3542 0
1 -3558 768 0
1 3558 738 0
1 -3558 -708 0
1 -3573 768 0
1 3573 738 0
1 -3573 3588 0
1 -3573 753 0
1 -3588 768 0
1 3588 3587 0
1 -3588 -753 0
